SDVRP instances/custom_instances/p01_5_splitx10_0.vrp
NAME:p01_5_splitx10_
BEST_KNOWN: 0
COMMENT: 0
DIMENSION: 233
CAPACITY: 1600
EDGE_WEIGHT_FORMAT: FUNCTION
EDGE_WEIGHT_TYPE: EXACT_2D
NODE_COORD_SECTION
1 0.00000 0.00000
2 -49 -21
3 -49 -21
4 -49 -21
5 49 23
6 49 23
7 49 23
8 49 23
9 49 23
10 49 23
11 -43 -46
12 -43 -46
13 -43 -46
14 -43 -46
15 -43 -46
16 -12 -45
17 -12 -45
18 -12 -45
19 -12 -45
20 -12 -45
21 -12 -45
22 41 -1
23 41 -1
24 41 -1
25 -46 -6
26 -46 -6
27 -46 -6
28 -46 -6
29 -46 -6
30 -13 24
31 -13 24
32 -13 24
33 -13 24
34 -13 24
35 -11 -2
36 -11 -2
37 -11 -2
38 -33 -2
39 -33 -2
40 -33 -2
41 -33 -2
42 11 14
43 11 14
44 11 14
45 11 14
46 11 14
47 11 14
48 11 14
49 43 -8
50 43 -8
51 -50 12
52 -50 12
53 -50 12
54 31 49
55 31 49
56 31 49
57 31 49
58 31 49
59 31 49
60 31 49
61 -9 -2
62 -9 -2
63 -9 -2
64 -9 -2
65 -9 -2
66 -12 -26
67 -12 -26
68 -12 -26
69 -12 -26
70 -12 -26
71 -12 -26
72 9 -50
73 9 -50
74 9 -50
75 9 -50
76 9 -50
77 9 -50
78 9 -50
79 -26 -46
80 -26 -46
81 -26 -46
82 -26 -46
83 -26 -46
84 -26 -46
85 -26 -46
86 29 25
87 29 25
88 29 25
89 29 25
90 29 25
91 29 25
92 -20 6
93 -20 6
94 -5 -5
95 -5 -5
96 -10 -50
97 -10 -50
98 -15 43
99 -15 43
100 -15 43
101 -15 43
102 -15 43
103 -17 19
104 -17 19
105 -17 19
106 -17 19
107 -17 19
108 -33 -33
109 -33 -33
110 -33 -33
111 -33 -33
112 -33 -33
113 -33 -33
114 -44 -33
115 -44 -33
116 -44 -33
117 -44 -33
118 -44 -33
119 -44 -33
120 -44 -33
121 -30 -45
122 -30 -45
123 -30 -45
124 -30 -45
125 -30 -45
126 -30 -45
127 -30 -45
128 23 -2
129 23 -2
130 23 -2
131 23 -2
132 23 -2
133 23 -2
134 -19 -47
135 28 -38
136 28 -38
137 28 -38
138 28 -38
139 -45 -46
140 -45 -46
141 -45 -46
142 -45 -46
143 -24 22
144 -24 22
145 -24 22
146 -24 22
147 -24 22
148 -34 30
149 -34 30
150 -34 30
151 -34 30
152 -34 30
153 -34 30
154 31 -21
155 31 -21
156 31 -21
157 31 -21
158 23 -40
159 23 -40
160 23 -40
161 23 -40
162 23 -40
163 6 -48
164 6 -48
165 6 -48
166 21 -46
167 21 -46
168 21 -46
169 21 -46
170 21 -46
171 21 -46
172 47 47
173 47 47
174 47 47
175 17 8
176 17 8
177 17 8
178 17 8
179 -28 4
180 -28 4
181 -9 18
182 -9 18
183 -9 18
184 -9 18
185 23 -17
186 23 -17
187 23 -17
188 23 -17
189 23 -17
190 -38 -36
191 -38 -36
192 -38 -36
193 -38 -36
194 -38 -36
195 -38 -36
196 -38 -36
197 -27 -16
198 -27 -16
199 -27 -16
200 -27 -16
201 -27 -16
202 -27 -16
203 19 -12
204 19 -12
205 19 -12
206 19 -12
207 19 -12
208 34 8
209 34 8
210 34 8
211 34 8
212 34 8
213 33 -21
214 33 -21
215 -36 -47
216 -16 49
217 -16 49
218 -16 49
219 -16 49
220 -16 49
221 -31 -6
222 -31 -6
223 -31 -6
224 -31 -6
225 -31 -6
226 -31 -6
227 -29 -27
228 -29 -27
229 -29 -27
230 -29 -27
231 -29 -27
232 -29 -27
233 -29 -27
DEMAND_SECTION
1 0
2 320
3 16
4 14
5 320
6 80
7 16
8 16
9 16
10 12
11 320
12 16
13 16
14 16
15 12
16 320
17 320
18 80
19 16
20 16
21 8
22 320
23 320
24 10
25 320
26 320
27 80
28 16
29 4
30 320
31 160
32 80
33 16
34 4
35 320
36 320
37 10
38 320
39 16
40 16
41 8
42 320
43 160
44 80
45 16
46 16
47 16
48 2
49 320
50 160
51 320
52 320
53 80
54 320
55 320
56 80
57 16
58 16
59 16
60 12
61 320
62 160
63 16
64 16
65 8
66 320
67 80
68 16
69 16
70 16
71 2
72 320
73 160
74 16
75 16
76 16
77 16
78 6
79 320
80 320
81 16
82 16
83 16
84 16
85 6
86 320
87 160
88 16
89 16
90 16
91 12
92 320
93 10
94 320
95 320
96 320
97 320
98 320
99 160
100 80
101 16
102 4
103 320
104 320
105 80
106 16
107 14
108 320
109 80
110 16
111 16
112 16
113 2
114 320
115 80
116 16
117 16
118 16
119 16
120 6
121 160
122 80
123 16
124 16
125 16
126 16
127 6
128 160
129 80
130 16
131 16
132 16
133 2
134 320
135 320
136 160
137 16
138 4
139 320
140 160
141 80
142 10
143 320
144 16
145 16
146 16
147 2
148 320
149 160
150 16
151 16
152 16
153 2
154 160
155 16
156 16
157 8
158 320
159 160
160 16
161 16
162 8
163 320
164 160
165 10
166 160
167 80
168 16
169 16
170 16
171 2
172 320
173 160
174 10
175 160
176 80
177 16
178 14
179 320
180 320
181 320
182 320
183 80
184 10
185 320
186 320
187 80
188 16
189 4
190 320
191 320
192 80
193 16
194 16
195 16
196 12
197 320
198 160
199 16
200 16
201 16
202 12
203 160
204 16
205 16
206 16
207 2
208 320
209 16
210 16
211 16
212 12
213 320
214 320
215 320
216 320
217 320
218 80
219 16
220 4
221 160
222 80
223 16
224 16
225 16
226 12
227 320
228 320
229 80
230 16
231 16
232 16
233 12
DEPOT_SECTION
1
-1
EOF