SDVRP instances/custom_instances/p01_5_splitx10_0.sol
232 -2 1 3 114 115 116 118 113 119 117 193 194 189 191 190 192 195 -33 31 30 32 29 150 151 152 149 147 148 146 144 142 145 143 104 105 106 -35 36 34 60 63 61 62 64 -40 39 38 26 27 25 24 28 52 50 51 -42 44 43 45 46 89 86 88 90 85 87 5 4 7 9 8 6 175 174 176 177 -47 41 59 56 54 55 57 53 58 172 171 173 -67 65 226 228 227 196 199 197 200 201 198 -69 70 66 68 16 17 15 20 19 18 95 96 -91 92 178 179 37 220 221 225 224 222 223 -93 94 -99 97 98 101 100 218 219 216 215 217 -102 103 183 180 182 181 -111 112 109 110 108 107 124 121 125 126 78 79 83 84 82 81 80 133 -120 123 122 214 10 11 14 12 13 139 141 138 140 232 230 229 231 -127 128 129 213 212 153 156 155 154 185 202 -132 130 131 49 48 21 23 22 211 208 207 209 210 -160 159 157 158 161 134 137 135 136 187 186 188 184 205 204 203 206 -164 163 162 72 74 75 76 77 73 71 168 165 166 170 169 167 0 





OBJ=
1703.401
BEST_KNOWN=
0.000